sat
(:max-memory         18.13
 :memory             17.99
 :nlsat-propagations 9
 :nlsat-stages       4
 :num-allocs         6699
 :rlimit-count       4225
 :time               0.00
 :total-time         0.01)
